p edge 100 373
e 1 2
e 1 3
e 1 4
e 1 14
e 1 17
e 1 18
e 1 20
e 1 22
e 1 25
e 1 35
e 1 37
e 1 59
e 1 60
e 1 94
e 2 4
e 2 8
e 2 10
e 2 22
e 2 25
e 2 27
e 2 33
e 2 34
e 2 38
e 2 59
e 2 60
e 2 62
e 2 67
e 2 94
e 3 4
e 3 5
e 3 6
e 3 9
e 3 10
e 3 11
e 3 13
e 3 15
e 3 21
e 3 29
e 3 53
e 3 78
e 4 8
e 4 11
e 4 16
e 4 17
e 4 18
e 4 20
e 4 22
e 4 43
e 4 53
e 4 94
e 4 98
e 5 6
e 5 10
e 5 15
e 5 23
e 5 29
e 5 31
e 5 40
e 5 56
e 5 66
e 5 70
e 5 76
e 5 84
e 5 89
e 6 11
e 6 22
e 6 25
e 6 29
e 6 35
e 6 45
e 6 53
e 6 54
e 6 58
e 6 63
e 6 66
e 6 68
e 7 8
e 7 20
e 7 25
e 7 27
e 7 30
e 7 32
e 7 33
e 7 37
e 7 39
e 7 60
e 7 80
e 8 22
e 8 30
e 8 32
e 8 37
e 8 38
e 8 43
e 8 44
e 8 61
e 8 65
e 8 92
e 9 10
e 9 12
e 9 20
e 9 21
e 9 24
e 9 27
e 9 33
e 9 40
e 9 41
e 9 44
e 9 46
e 9 47
e 9 62
e 9 78
e 9 91
e 9 100
e 10 13
e 10 15
e 10 17
e 10 18
e 10 21
e 10 27
e 10 29
e 10 33
e 10 34
e 10 38
e 10 46
e 10 47
e 11 19
e 11 20
e 11 22
e 11 35
e 11 53
e 11 54
e 11 58
e 12 13
e 12 21
e 12 27
e 12 31
e 12 32
e 12 34
e 12 47
e 12 52
e 12 91
e 12 96
e 13 15
e 13 18
e 13 21
e 13 22
e 13 25
e 13 27
e 13 29
e 13 31
e 13 33
e 13 47
e 13 85
e 14 16
e 14 28
e 14 31
e 14 73
e 14 74
e 14 79
e 14 97
e 15 17
e 15 19
e 15 21
e 15 29
e 15 35
e 15 40
e 15 45
e 15 56
e 15 63
e 15 74
e 15 86
e 15 88
e 16 28
e 16 43
e 16 82
e 16 94
e 17 18
e 17 26
e 17 30
e 17 33
e 17 45
e 17 63
e 17 86
e 17 87
e 18 20
e 18 26
e 18 27
e 18 30
e 18 33
e 18 37
e 18 47
e 19 50
e 19 51
e 19 54
e 19 55
e 19 58
e 19 74
e 19 88
e 20 21
e 20 24
e 20 25
e 20 37
e 20 45
e 20 46
e 20 66
e 21 22
e 21 24
e 21 27
e 21 29
e 21 30
e 21 31
e 21 46
e 21 47
e 21 85
e 22 29
e 22 31
e 22 35
e 22 36
e 22 54
e 22 73
e 22 83
e 22 85
e 23 29
e 23 50
e 23 51
e 23 55
e 23 56
e 23 57
e 24 25
e 24 38
e 24 40
e 24 41
e 24 44
e 24 46
e 25 37
e 25 38
e 25 58
e 25 59
e 26 30
e 26 32
e 26 33
e 26 48
e 26 52
e 26 77
e 26 81
e 26 95
e 27 32
e 27 33
e 27 34
e 27 38
e 27 46
e 27 47
e 27 52
e 28 29
e 28 42
e 28 49
e 28 51
e 28 55
e 28 75
e 28 79
e 28 97
e 29 31
e 29 42
e 29 49
e 29 51
e 29 56
e 29 75
e 29 85
e 30 32
e 30 33
e 31 36
e 31 48
e 31 73
e 31 84
e 31 85
e 32 47
e 32 52
e 33 34
e 33 38
e 33 46
e 33 47
e 34 38
e 34 53
e 34 78
e 34 91
e 35 40
e 35 45
e 35 54
e 35 63
e 36 73
e 36 81
e 36 82
e 36 83
e 36 90
e 37 43
e 37 61
e 37 92
e 38 44
e 39 42
e 39 60
e 39 71
e 39 80
e 40 45
e 40 63
e 40 70
e 40 76
e 40 89
e 41 44
e 41 64
e 42 43
e 42 49
e 42 51
e 42 61
e 42 75
e 43 61
e 43 92
e 43 94
e 45 54
e 45 63
e 45 66
e 45 86
e 46 47
e 46 72
e 47 52
e 48 87
e 49 51
e 49 57
e 49 69
e 49 75
e 49 77
e 49 88
e 50 51
e 50 57
e 51 57
e 51 75
e 52 77
e 52 95
e 52 96
e 53 91
e 54 58
e 56 68
e 57 68
e 57 69
e 57 88
e 58 67
e 58 99
e 59 67
e 60 67
e 60 80
e 61 64
e 61 92
e 62 100
e 63 66
e 63 86
e 67 99
e 68 69
e 68 88
e 69 77
e 69 79
e 70 76
e 70 83
e 70 89
e 73 83
e 73 85
e 74 88
e 76 89
e 77 79
e 77 95
e 79 97
e 81 82
e 81 90
e 82 90
e 84 93
